50

 0   1   2   3   4   1   2   3   4   5   2   3   4   5   6   3   4   5   6   7   4   5   6   7   8   5   6   7   8   9   6   7   8   9  10   7   8   9  10  11   8   9  10  11  12   9  10  11  12  13  
 1   0   1   2   3   2   1   2   3   4   3   2   3   4   5   4   3   4   5   6   5   4   5   6   7   6   5   6   7   8   7   6   7   8   9   8   7   8   9  10   9   8   9  10  11  10   9  10  11  12  
 2   1   0   1   2   3   2   1   2   3   4   3   2   3   4   5   4   3   4   5   6   5   4   5   6   7   6   5   6   7   8   7   6   7   8   9   8   7   8   9  10   9   8   9  10  11  10   9  10  11  
 3   2   1   0   1   4   3   2   1   2   5   4   3   2   3   6   5   4   3   4   7   6   5   4   5   8   7   6   5   6   9   8   7   6   7  10   9   8   7   8  11  10   9   8   9  12  11  10   9  10  
 4   3   2   1   0   5   4   3   2   1   6   5   4   3   2   7   6   5   4   3   8   7   6   5   4   9   8   7   6   5  10   9   8   7   6  11  10   9   8   7  12  11  10   9   8  13  12  11  10   9  
 1   2   3   4   5   0   1   2   3   4   1   2   3   4   5   2   3   4   5   6   3   4   5   6   7   4   5   6   7   8   5   6   7   8   9   6   7   8   9  10   7   8   9  10  11   8   9  10  11  12  
 2   1   2   3   4   1   0   1   2   3   2   1   2   3   4   3   2   3   4   5   4   3   4   5   6   5   4   5   6   7   6   5   6   7   8   7   6   7   8   9   8   7   8   9  10   9   8   9  10  11  
 3   2   1   2   3   2   1   0   1   2   3   2   1   2   3   4   3   2   3   4   5   4   3   4   5   6   5   4   5   6   7   6   5   6   7   8   7   6   7   8   9   8   7   8   9  10   9   8   9  10  
 4   3   2   1   2   3   2   1   0   1   4   3   2   1   2   5   4   3   2   3   6   5   4   3   4   7   6   5   4   5   8   7   6   5   6   9   8   7   6   7  10   9   8   7   8  11  10   9   8   9  
 5   4   3   2   1   4   3   2   1   0   5   4   3   2   1   6   5   4   3   2   7   6   5   4   3   8   7   6   5   4   9   8   7   6   5  10   9   8   7   6  11  10   9   8   7  12  11  10   9   8  
 2   3   4   5   6   1   2   3   4   5   0   1   2   3   4   1   2   3   4   5   2   3   4   5   6   3   4   5   6   7   4   5   6   7   8   5   6   7   8   9   6   7   8   9  10   7   8   9  10  11  
 3   2   3   4   5   2   1   2   3   4   1   0   1   2   3   2   1   2   3   4   3   2   3   4   5   4   3   4   5   6   5   4   5   6   7   6   5   6   7   8   7   6   7   8   9   8   7   8   9  10  
 4   3   2   3   4   3   2   1   2   3   2   1   0   1   2   3   2   1   2   3   4   3   2   3   4   5   4   3   4   5   6   5   4   5   6   7   6   5   6   7   8   7   6   7   8   9   8   7   8   9  
 5   4   3   2   3   4   3   2   1   2   3   2   1   0   1   4   3   2   1   2   5   4   3   2   3   6   5   4   3   4   7   6   5   4   5   8   7   6   5   6   9   8   7   6   7  10   9   8   7   8  
 6   5   4   3   2   5   4   3   2   1   4   3   2   1   0   5   4   3   2   1   6   5   4   3   2   7   6   5   4   3   8   7   6   5   4   9   8   7   6   5  10   9   8   7   6  11  10   9   8   7  
 3   4   5   6   7   2   3   4   5   6   1   2   3   4   5   0   1   2   3   4   1   2   3   4   5   2   3   4   5   6   3   4   5   6   7   4   5   6   7   8   5   6   7   8   9   6   7   8   9  10  
 4   3   4   5   6   3   2   3   4   5   2   1   2   3   4   1   0   1   2   3   2   1   2   3   4   3   2   3   4   5   4   3   4   5   6   5   4   5   6   7   6   5   6   7   8   7   6   7   8   9  
 5   4   3   4   5   4   3   2   3   4   3   2   1   2   3   2   1   0   1   2   3   2   1   2   3   4   3   2   3   4   5   4   3   4   5   6   5   4   5   6   7   6   5   6   7   8   7   6   7   8  
 6   5   4   3   4   5   4   3   2   3   4   3   2   1   2   3   2   1   0   1   4   3   2   1   2   5   4   3   2   3   6   5   4   3   4   7   6   5   4   5   8   7   6   5   6   9   8   7   6   7  
 7   6   5   4   3   6   5   4   3   2   5   4   3   2   1   4   3   2   1   0   5   4   3   2   1   6   5   4   3   2   7   6   5   4   3   8   7   6   5   4   9   8   7   6   5  10   9   8   7   6  
 4   5   6   7   8   3   4   5   6   7   2   3   4   5   6   1   2   3   4   5   0   1   2   3   4   1   2   3   4   5   2   3   4   5   6   3   4   5   6   7   4   5   6   7   8   5   6   7   8   9  
 5   4   5   6   7   4   3   4   5   6   3   2   3   4   5   2   1   2   3   4   1   0   1   2   3   2   1   2   3   4   3   2   3   4   5   4   3   4   5   6   5   4   5   6   7   6   5   6   7   8  
 6   5   4   5   6   5   4   3   4   5   4   3   2   3   4   3   2   1   2   3   2   1   0   1   2   3   2   1   2   3   4   3   2   3   4   5   4   3   4   5   6   5   4   5   6   7   6   5   6   7  
 7   6   5   4   5   6   5   4   3   4   5   4   3   2   3   4   3   2   1   2   3   2   1   0   1   4   3   2   1   2   5   4   3   2   3   6   5   4   3   4   7   6   5   4   5   8   7   6   5   6  
 8   7   6   5   4   7   6   5   4   3   6   5   4   3   2   5   4   3   2   1   4   3   2   1   0   5   4   3   2   1   6   5   4   3   2   7   6   5   4   3   8   7   6   5   4   9   8   7   6   5  
 5   6   7   8   9   4   5   6   7   8   3   4   5   6   7   2   3   4   5   6   1   2   3   4   5   0   1   2   3   4   1   2   3   4   5   2   3   4   5   6   3   4   5   6   7   4   5   6   7   8  
 6   5   6   7   8   5   4   5   6   7   4   3   4   5   6   3   2   3   4   5   2   1   2   3   4   1   0   1   2   3   2   1   2   3   4   3   2   3   4   5   4   3   4   5   6   5   4   5   6   7  
 7   6   5   6   7   6   5   4   5   6   5   4   3   4   5   4   3   2   3   4   3   2   1   2   3   2   1   0   1   2   3   2   1   2   3   4   3   2   3   4   5   4   3   4   5   6   5   4   5   6  
 8   7   6   5   6   7   6   5   4   5   6   5   4   3   4   5   4   3   2   3   4   3   2   1   2   3   2   1   0   1   4   3   2   1   2   5   4   3   2   3   6   5   4   3   4   7   6   5   4   5  
 9   8   7   6   5   8   7   6   5   4   7   6   5   4   3   6   5   4   3   2   5   4   3   2   1   4   3   2   1   0   5   4   3   2   1   6   5   4   3   2   7   6   5   4   3   8   7   6   5   4  
 6   7   8   9  10   5   6   7   8   9   4   5   6   7   8   3   4   5   6   7   2   3   4   5   6   1   2   3   4   5   0   1   2   3   4   1   2   3   4   5   2   3   4   5   6   3   4   5   6   7  
 7   6   7   8   9   6   5   6   7   8   5   4   5   6   7   4   3   4   5   6   3   2   3   4   5   2   1   2   3   4   1   0   1   2   3   2   1   2   3   4   3   2   3   4   5   4   3   4   5   6  
 8   7   6   7   8   7   6   5   6   7   6   5   4   5   6   5   4   3   4   5   4   3   2   3   4   3   2   1   2   3   2   1   0   1   2   3   2   1   2   3   4   3   2   3   4   5   4   3   4   5  
 9   8   7   6   7   8   7   6   5   6   7   6   5   4   5   6   5   4   3   4   5   4   3   2   3   4   3   2   1   2   3   2   1   0   1   4   3   2   1   2   5   4   3   2   3   6   5   4   3   4  
10   9   8   7   6   9   8   7   6   5   8   7   6   5   4   7   6   5   4   3   6   5   4   3   2   5   4   3   2   1   4   3   2   1   0   5   4   3   2   1   6   5   4   3   2   7   6   5   4   3  
 7   8   9  10  11   6   7   8   9  10   5   6   7   8   9   4   5   6   7   8   3   4   5   6   7   2   3   4   5   6   1   2   3   4   5   0   1   2   3   4   1   2   3   4   5   2   3   4   5   6  
 8   7   8   9  10   7   6   7   8   9   6   5   6   7   8   5   4   5   6   7   4   3   4   5   6   3   2   3   4   5   2   1   2   3   4   1   0   1   2   3   2   1   2   3   4   3   2   3   4   5  
 9   8   7   8   9   8   7   6   7   8   7   6   5   6   7   6   5   4   5   6   5   4   3   4   5   4   3   2   3   4   3   2   1   2   3   2   1   0   1   2   3   2   1   2   3   4   3   2   3   4  
10   9   8   7   8   9   8   7   6   7   8   7   6   5   6   7   6   5   4   5   6   5   4   3   4   5   4   3   2   3   4   3   2   1   2   3   2   1   0   1   4   3   2   1   2   5   4   3   2   3  
11  10   9   8   7  10   9   8   7   6   9   8   7   6   5   8   7   6   5   4   7   6   5   4   3   6   5   4   3   2   5   4   3   2   1   4   3   2   1   0   5   4   3   2   1   6   5   4   3   2  
 8   9  10  11  12   7   8   9  10  11   6   7   8   9  10   5   6   7   8   9   4   5   6   7   8   3   4   5   6   7   2   3   4   5   6   1   2   3   4   5   0   1   2   3   4   1   2   3   4   5  
 9   8   9  10  11   8   7   8   9  10   7   6   7   8   9   6   5   6   7   8   5   4   5   6   7   4   3   4   5   6   3   2   3   4   5   2   1   2   3   4   1   0   1   2   3   2   1   2   3   4  
10   9   8   9  10   9   8   7   8   9   8   7   6   7   8   7   6   5   6   7   6   5   4   5   6   5   4   3   4   5   4   3   2   3   4   3   2   1   2   3   2   1   0   1   2   3   2   1   2   3  
11  10   9   8   9  10   9   8   7   8   9   8   7   6   7   8   7   6   5   6   7   6   5   4   5   6   5   4   3   4   5   4   3   2   3   4   3   2   1   2   3   2   1   0   1   4   3   2   1   2  
12  11  10   9   8  11  10   9   8   7  10   9   8   7   6   9   8   7   6   5   8   7   6   5   4   7   6   5   4   3   6   5   4   3   2   5   4   3   2   1   4   3   2   1   0   5   4   3   2   1  
 9  10  11  12  13   8   9  10  11  12   7   8   9  10  11   6   7   8   9  10   5   6   7   8   9   4   5   6   7   8   3   4   5   6   7   2   3   4   5   6   1   2   3   4   5   0   1   2   3   4  
10   9  10  11  12   9   8   9  10  11   8   7   8   9  10   7   6   7   8   9   6   5   6   7   8   5   4   5   6   7   4   3   4   5   6   3   2   3   4   5   2   1   2   3   4   1   0   1   2   3  
11  10   9  10  11  10   9   8   9  10   9   8   7   8   9   8   7   6   7   8   7   6   5   6   7   6   5   4   5   6   5   4   3   4   5   4   3   2   3   4   3   2   1   2   3   2   1   0   1   2  
12  11  10   9  10  11  10   9   8   9  10   9   8   7   8   9   8   7   6   7   8   7   6   5   6   7   6   5   4   5   6   5   4   3   4   5   4   3   2   3   4   3   2   1   2   3   2   1   0   1  
13  12  11  10   9  12  11  10   9   8  11  10   9   8   7  10   9   8   7   6   9   8   7   6   5   8   7   6   5   4   7   6   5   4   3   6   5   4   3   2   5   4   3   2   1   4   3   2   1   0  

 0   0  50   0   9   0   0   0   0   0   0  94  20  26   0   0   0  93   0   0  59   0   0   0   0   0   0   0   0   0   0   0  13   0  94   0   0   0   0   0   0  43  44   7   0   0   0   0   0   0  
18   0   0   0   0   0   0   0   0   0   0   0   0  13   0   0   0  88   0   0   0   0   0  19   0  41   0   0   0   0   0  34   0   0   0   0   7   0   0   8   0   0  22  76   0  30   0   0   0   0  
 0   0   0  90   0   0   0   0   0   0   0   0  92   0   0   0   0   0   0  21   0   0  45  97   0  86   0   0  60   0   0   0   0   0   0  71   0  82  78  13   0   0   0   0   0   0   0  39   0  58  
81   0   0   0   0   0   0   0  39  92  80   0   0   0   0   0   0  89  65   0   0   0   4  15   0   0   0  25   0   0  23  29   0   0   0  68   0   0  46   0   0   0   0   0   0   0   0   0   0   0  
 0   0   0   0   0   0   0   0  67   0   0  74   0   0   0  53  85  92   0  93   0  63  65   0   0  29  73   0   0   5   0   0   0   0  95  62  85   0  83   0   0   0  48   0   0   0   0   0   0  80  
 0  99   0   0   0   0   0   0   0   7   0  94  96   0   0  17   0   0   0   0   0   0   0  36   0   0   0  40   0   0  89   0  67   0   0   0   0   0   0   0   0   0   0   0   0   0   0  68   0   0  
 3   0   0   0  25   0   0   0   0   0   7   0   0   0   0   0   0   0  41   0   0  79   0  27   0   0  69   0   0  38   0   0  28   0   0   0   0   0   0   0   0   0  47   0   0   0  12  42  80   0  
 0   0   0   0   0   0   0   0   0   0   1   0   0  18  78   0  97   0   0  87   0  67   0   5  90   0   0   0   0  83   0   0  66   0   0   0   0   0   0  57   0   0   0   0   0  83   0   0   0  50  
 0   0  51   0   0   0   0  25   0  71  90   0  61   0   0  55   0   0   0   0   0   7   0   0   0   0   0   0   0   0  69   0   0   0  13   0  90   0  92   0   0  47   0   0   0   0  61   0   0   0  
 0  98   0  25  34   0   0   0   0   0   0   0   0   0   0   0   0  39   0   0   0  56   0   0  19   0   0   0   0   0   0  21  32   0   0   0   0   0   0   0   0   0   0   0   0   0   0   9   0   0  
 0   0   0   0   0   0   0  67   0   0   0  48   0  71   0  66   0  71   0   4   0   0   0   0   0   0  79  55   0  88   0  49   0  13   0  25   0   0   0  45   0   0   0   0   0  78  21   0   0   0  
 0   0   0   1  63   0   0  24   0   0  81   0   0  23   0  79   0  79   0  74   0   0   0   0   0  75  44   0  65   0   0  46  90   0   0   0   0  22   0   0  18   0   0  11  77   0   0   0   0   0  
 0   0   0   1  66  14   0  34  74   0   0   0   0   0   0  14   0   0   0  49   0   0  14   0   0  26   0  82   0   0   0   0   0   0   0  66   0   0   0  57   0   0   0   0   0   0  81  65   0   0  
 0   0  56   0  95   0  42  84   0  67   0   0  21   0   0  51   0   0   0   0   2   0   0  91   0   8   0   0   0   0   0   0   0   0   7  99   0   0   0   0   0   0   0   0   0   0  30  38   0   0  
25   0   0  26   0   0   0   0   0   0   0   0   0  40   0   0   0   0   0   0   0   0   0   0   0  37   0   8   0   0  73  34  99   0  48  29  10   0   0  63   0   0   0  26   0   0   0   0  22   0  
46  75   0   0   0   0   0   0   0   0   0   0   0   0   0   0   0   0  66  49   1   0  86   5   0  64   0   0   0  60  66   0   0   0   0  99   0   0   0   0  60   0   0   0   0   0   0   0   0   0  
 0   0  70   0  24   0   0   0   0   0   0   0  22   0   0   0   0   0   0  73  89   0   0   0  20   0   0  78   0  37   0   0  85   0   0  84  52   0   0  29   0   0   0   0   0   0  89   0  95   0  
 0  35  85   0   0   0   0  63  23   0   0  81   0   0   0   0   0   0  66   0   0   0   0   0   0   0  97   0   0   0   0   0   0  64   0   0   0  91   0   0   0   0   0  79  40  74   9   0   0   0  
 0   0   0  60   0   0   0   0   0   0  71   0   0   0   0   0   0  19   0   0   0   0   0   0   0   0   0   0  97   0   0   0   0   0   0   0   0   0   0   0   0   0   0  78   0   0  56   0   0   0  
 0   0   0   0  21   0  19  85   0   0   0   0  11   0   0  39   0   0   0   0  82   0   0   0   0   0   0   0   0   0   0   0   0   0   0  41   0   0   0   0   0  60   0   0  79   0   0   0   0  49  
 0   0   0   0   0   0   0  27   0   0   0  89  38  84   0   8   0   0   7   0   0  74  66   0   0   0   0  63   0  13   0  34  31   0   0   0   0  79   0   0   0  67  75   0   0   0   0   0   0   0  
 0   0   0   0   0   0   0   0  98   0   0   0   0   0  81   0  64   0   0   0   0   0   0  36   0  88   0   0   0   0  63   0   0   0   0  98   0   0   0   0   0   0   0   0  99   0   4   0   0  80  
 0   0   0  54  34   0   0   0   0   0   0   0   0   0   0  91   0  17   0   0   0   0   0  69   0   0  38   0   0   0   0  40   0   0   0   0  53  21   0   0   0   0   0   0   0   0  57   0   0   0  
 0   0   0   0   0  83  83   0   0   0   0   0   0   0   0  93   0   0   0   0  31  37   0   0   0  33   0   0   0   0   0   0   0   0   0   0   0   0   0   0   0   0  60  49   0   0   0   0  72   0  
 0   0  23   0   0   0   0   0   7   0   0   0   0  58  14   0   0   0  43   0   0   0   0   0   0   0  99   0  81   0   0   0   0   0   0   0   0   0   0   0   0  85  89   0  17   0  23   0  31   0  
 0   0  92  87   0   0   0   0   0  44   0  98  43  12   0   0   4   0   0   0   0   0   0  19   0   0   0   0   0   0   0  65   0  34   0   0   8  44   0   0  62   0   0   0  40   0   0   0   0  52  
 0   0  12  18   0   0   0   0   1  41   0   0  87   0   0   0   0   0   0   0   0  85   0   0  44   0   0  87   0  93   0   0   0  18   0   0  56   0   5   0   0   0  65   0   0   0   0   0   0  10  
 0   0   0   0   0   0   0   0   0   0   0   0   0   0  53   0   0   0  11  87   0   0   0   0   0   0   0   0   9   0  67   0  71   0   0  10   0   0   0   0   0   0  91   0  97   0   0   0   0   0  
 0   0  63   0  68   0   9   0   0   0   0   0   0   0   0   0   0   0  90  54   0   0   0   0   0   0   0   0   0   0   0  84  68   0   0  43   0   7   0   0   0   0   0   0   0   0   0   0  42   0  
96   0   0   0   0   0   0   0   0   0   0   0   0   0   0   0   0   0   0   0   0   0  68   0   0  99  41  50   0   0   0   0   0   0  44  13   0  27   0   0   0   0   0   0  38   0   0   0   0   0  
88   0   0   0   0   0   0  16   0   0   0   0   0  88  37   0   0   0   0   0   0   0   0   0  29   0   0   1  93   0   0   0   0   0   0   0   0   0  20  39   8   0  67   0   0   0   0   0   0   0  
 0   0   0   0   0   0   0   0   0   0   0   0   0   0   0   0   0   0   0   0  54  92   0   0  22   0   0   0   0  79   0   0  83   0   0  27   0   0   0   0   0   0  28  26   0   0   0   0   0   0  
 0   0  31   0   0   0  28  38   0   0   0   0   0   3  90  29   0   0   0   0   0  90  89  31   0  45  93   0   0  42   0   0   0   0   0   0   0   0   0   0   0   0   0   0   0  31   0   0  40   0  
 0   0  10   0   0   0   0  46   0  98   0   0   0  80   0   0   6   0  20   0  69   0  47   0   0   0   0   0   0   0   0  83  55   0   0   0   0   0   0  44   0   0   0   0   0   0  73   0   0   0  
 0   0   0  73   0   0   0   0  22  83   0   0   0   0  53   0   0  36   0   0   0  73   0  71   0   0  48  79   0   0  39  82   0   0   0   0   0   0   0   0  79   0   0   0   0   0   0   0  78   0  
 0   0   0   0   0   0   0   0   0   0   0  26   7   0   0  82  54   0   0   0   0  39   0   0   0   0   0   0   0  56   0   0   0   0   0   0   0   0  15   0   0   0  64   0  12  25   0   0   0  49  
 0   0   0   0   0   0   0  61   0   0  82   0   8   0   0   0  35   0   0   0   0   0  73  94   0  60   0   0   0   0  31  78  36   0  36   0   0   0   0   0   0   0  65   0   9  63   0   0   0   0  
 6   0  73  98   0   0   0  18   0   0   0   0   0  36   0   0  38   0   0   0   0  32   0   0  40   0  29   0   0   0  62   0   0   0   0   0   1   0   0   0   0  19  58  54   0  78   0   0  88   0  
 0  65   0   0   0   0   0   0  77   0   0   0   0  93   0   0   0   0   0   0   0   0   0   0  62   0   0   0   0   0   0  99   0   0  16   0   0   0   0   0   0  72   0   0   0   0   0   0   0  47  
62   0   0   0   0   0  73   3   0   0   0   0   0   0   0   0  28   0   0   0   0   0   0   0   0   0   0   0   0   7   0   6  50   0  25   0   0   0   0   0  94  74   0   0   0   5   0   0   0   0  
 0   0   0   0   0   0   0  56   0   0   0   0   0  78   0  61   0   0  36   0   0   0  48  58   0   0   0  29   0   0   0   5   0   0   0   0   0  31   0   0   0   0   7   0  21   0  14   0   0  17  
 0   0   0   0   0   0   0   0   0   0   0   0  85  42  78   0   0   0  38   0   0   0   0   0  21   0   0   0  19   0   0   0   0  27   0  71   0   0  66   0   0   0   0   0   6   0  65  67   0   0  
 1   0  68   0   0   0   0  88   0   0  45   0   0   0  77   0   0   0   0  50   0   0   0   0   0   0  44  18  62   0   0   0   0   0   0   0   0   0   0  93  39   0   0   0  14   0   0   0  10  27  
 0   0   0   0   0   0  30  39  32  52   0   0   0   0   0   0  66  81   0  53   0   0  63   0  36  84   0   0  30   0   0   0  86   0   0  95   0   0   0   0   0   0   0   0   0   0   0   0  75   0  
 0   0  39   0   0   0   0   0   0   0   0   0   0   0   0   0   0  93   0   0   0   0  50   0   0   0   0   0   0   0   0   0   0  46   0   0   0  58   0   0  62   0   0  70   0   0   0   0  54  11  
 2   0  61   0  70   0   0  86   0   0   0   0  76   0   0   0   0   0  64   0   0   0   0   0   0   0  77   0   0   0   0  62  15  98  92   0   0  45  16   0   0   0   0   0   0   0  22   0   0   0  
91   0   0   0   0   0   0   0  20   0   0   0   0  99   0   0   0   0  25   7   0   0  79   0   0   0   0  95   0  76  72   0   0   0   0   0   0   0   0   0   0  43   0   0   0   0   0   0   0   0  
14  66   0  53   0   0   0   0   0   0   0  30   0   0   0   0   0  13   0   0  12   0   0   0   0   0   0   0   0   0   0   1   0   0   0   0   0   0  41   0   0   0   0  95   0   0   0   0   0  30  
 0   0   0  58   0   0   0   0   0   0   0   8   0   0   0   0   0   0   0  72   0   0  34   0   0  35   7   0  31  12   0   0   0   0   0   0   0   0   0  17   5   0  49   0   0  86   0   0   0   0  
21  30  52   0   0   0  33   0  37  49   0   0   0   0  43   0   0   0   0   0   0   0   0   0   0   0   0   0   0   7   0   0   0  46   0   0   0   0  32   0   0   0   0   0   0   0  71   0   0   0  
